38653
1 1 1 1 1 1 1 1 1 1 1 1 1 1 1 1 1 1 1 1 1 1 1 1 1 1 1 1 1 1
19 22 21 8 9 3 8 3 24 25 9 4 10 14 9 0 14 16 29 20 16 16 4 5 17 9 18 0 20 16 4 12 7 3 2 16 7 24 24 5 14 12 12 7 3 22 12 5 22 19 17 14 1 4 24 28 2 5 14 15 17 27 22 25 15 21 5 14 24 4 19 9 2 8 5 15 13 11 3 14 5 25 11 24 20 5 15 7 24 15 9 29 0 27 29 17 20 29 11 3 6 9 19 11 27 7 17 23 13 9 25 17 9 1 7 17 18 19 11 18 20 10 10 13 23 15 21 20 8 21 10 8 12 27 16 26 0 23 14 1 6 23 27 17 6 19 9 8 11 9 8 11 1 22 4 24 0 24 22 28 23 8 1 17 26 0 2 5 16 23 2 14 24 4 12 7 2 14 27 4 26 4 28 22 28 15 29 1 28 20 16 8 26 20 8 10 4 1 27 8